Problem:    Cammino
Rows:       31
Columns:    21 (18 integer, 18 binary)
Non-zeros:  108
Status:     INTEGER OPTIMAL
Objective:  z = 47 (MINimum)

   No.   Row name        Activity     Lower bound   Upper bound
------ ------------    ------------- ------------- -------------
     1 Outdegree_s                 1             1             = 
     2 Indegree_t                  1             1             = 
     3 FlowConservation[2]
                                   0            -0             = 
     4 FlowConservation[3]
                                   0            -0             = 
     5 FlowConservation[4]
                                   0            -0             = 
     6 FlowConservation[5]
                                   0            -0             = 
     7 FlowConservation[6]
                                   0            -0             = 
     8 FlowConservation[7]
                                   0            -0             = 
     9 Elementarity_in[1]
                                   0                           1 
    10 Elementarity_in[2]
                                   1                           1 
    11 Elementarity_in[3]
                                   0                           1 
    12 Elementarity_in[4]
                                   0                           1 
    13 Elementarity_in[5]
                                   1                           1 
    14 Elementarity_in[6]
                                   1                           1 
    15 Elementarity_in[7]
                                   0                           1 
    16 Elementarity_in[8]
                                   1                           1 
    17 Elementarity_out[1]
                                   1                           1 
    18 Elementarity_out[2]
                                   1                           1 
    19 Elementarity_out[3]
                                   0                           1 
    20 Elementarity_out[4]
                                   0                           1 
    21 Elementarity_out[5]
                                   1                           1 
    22 Elementarity_out[6]
                                   1                           1 
    23 Elementarity_out[7]
                                   0                           1 
    24 Elementarity_out[8]
                                   0                           1 
    25 Incompatibility[1,3,3,7]
                                   0                           1 
    26 Incompatibility[1,2,5,8]
                                   1                           1 
    27 Incompatibility[1,4,7,8]
                                   0                           1 
    28 Penalty[5,8,7,8]
                                   1             1               
    29 Penalty[1,2,1,4]
                                   1             1               
    30 Penalty[5,6,7,6]
                                   1             1               
    31 z                          47                             

   No. Column name       Activity     Lower bound   Upper bound
------ ------------    ------------- ------------- -------------
     1 x[1,2]       *              1             0             1 
     2 x[1,3]       *              0             0             1 
     3 x[1,4]       *              0             0             1 
     4 x[5,8]       *              0             0             1 
     5 x[6,8]       *              1             0             1 
     6 x[7,8]       *              0             0             1 
     7 x[3,2]       *              0             0             1 
     8 x[2,5]       *              1             0             1 
     9 x[2,6]       *              0             0             1 
    10 x[4,3]       *              0             0             1 
    11 x[3,5]       *              0             0             1 
    12 x[3,6]       *              0             0             1 
    13 x[3,7]       *              0             0             1 
    14 x[4,6]       *              0             0             1 
    15 x[4,7]       *              0             0             1 
    16 x[5,6]       *              1             0             1 
    17 x[5,7]       *              0             0             1 
    18 x[7,6]       *              0             0             1 
    19 y[5,8,7,8]                  1             0             1 
    20 y[1,2,1,4]                  0             0             1 
    21 y[5,6,7,6]                  0             0             1 

Integer feasibility conditions:

KKT.PE: max.abs.err = 0.00e+00 on row 0
        max.rel.err = 0.00e+00 on row 0
        High quality

KKT.PB: max.abs.err = 0.00e+00 on row 0
        max.rel.err = 0.00e+00 on row 0
        High quality

End of output
